p gcnf 131 305 30
{1} 1 0
{2} 2 0
{3} 3 0
{4} 4 0
{5} 5 0
{6} 6 0
{7} 7 0
{8} 8 0
{9} 9 0
{10} 10 0
{11} 11 0
{12} 12 0
{13} 13 0
{14} 14 0
{15} 15 0
{16} 16 0
{17} 17 0
{18} 18 0
{19} 19 0
{20} 20 0
{21} 21 0
{22} 22 0
{23} 23 0
{24} 24 0
{25} 25 0
{26} 26 0
{27} 27 0
{28} 28 0
{29} 29 0
{30} 30 0
{0} -47 35 49 0
{0} -48 36 49 0
{0} -41 35 49 0
{0} -42 36 49 0
{0} -41 -47 36 49 0
{0} -41 -48 49 0
{0} -42 -47 49 0
{0} -42 -48 35 0
{0} -49 31 0
{0} -43 31 0
{0} -49 -43 32 0
{0} -44 32 0
{0} -49 -44 33 0
{0} -45 33 0
{0} -49 -45 34 0
{0} -46 34 0
{0} -49 -46 0
{0} -37 31 0
{0} -49 -37 32 0
{0} -38 32 0
{0} -49 -38 33 0
{0} -39 33 0
{0} -49 -39 34 0
{0} -40 34 0
{0} -49 -40 0
{0} -37 -43 32 0
{0} -49 -37 -43 33 0
{0} -37 -44 33 0
{0} -49 -37 -44 34 0
{0} -37 -45 34 0
{0} -49 -37 -45 0
{0} -37 -46 0
{0} -49 -37 -46 0
{0} -38 -43 33 0
{0} -49 -38 -43 34 0
{0} -38 -44 34 0
{0} -49 -38 -44 0
{0} -38 -45 0
{0} -49 -38 -45 0
{0} -38 -46 0
{0} -49 -38 -46 0
{0} -39 -43 34 0
{0} -49 -39 -43 0
{0} -39 -44 0
{0} -49 -39 -44 0
{0} -39 -45 0
{0} -49 -39 -45 0
{0} -39 -46 0
{0} -49 -39 -46 0
{0} -40 -43 0
{0} -49 -40 -43 0
{0} -40 -44 0
{0} -49 -40 -44 0
{0} -40 -45 0
{0} -49 -40 -45 0
{0} -40 -46 0
{0} -49 -40 -46 0
{0} -56 47 58 0
{0} -57 48 58 0
{0} -52 47 58 0
{0} -53 48 58 0
{0} -52 -56 48 58 0
{0} -52 -57 58 0
{0} -53 -56 58 0
{0} -53 -57 47 0
{0} -58 43 0
{0} -54 43 0
{0} -58 -54 44 0
{0} -55 44 0
{0} -58 -55 45 0
{0} -50 43 0
{0} -58 -50 44 0
{0} -51 44 0
{0} -58 -51 45 0
{0} -50 -54 44 0
{0} -58 -50 -54 45 0
{0} -50 -55 45 0
{0} -58 -50 -55 46 0
{0} -51 -54 45 0
{0} -58 -51 -54 46 0
{0} -51 -55 46 0
{0} -58 -51 -55 0
{0} -63 56 65 0
{0} -64 57 65 0
{0} -60 56 65 0
{0} -61 57 65 0
{0} -60 -63 57 65 0
{0} -60 -64 65 0
{0} -61 -63 65 0
{0} -61 -64 56 0
{0} -65 54 0
{0} -62 54 0
{0} -65 -62 55 0
{0} -59 54 0
{0} -65 -59 55 0
{0} -59 -62 55 0
{0} -65 -59 -62 0
{0} -29 66 0
{0} -28 66 0
{0} -28 -29 67 0
{0} -30 63 68 0
{0} -66 63 68 0
{0} -67 64 68 0
{0} -66 -30 64 68 0
{0} -67 -30 68 0
{0} -68 62 0
{0} -25 69 0
{0} -24 69 0
{0} -24 -25 70 0
{0} -27 71 0
{0} -26 71 0
{0} -26 -27 72 0
{0} -71 60 73 0
{0} -72 61 73 0
{0} -69 60 73 0
{0} -70 61 73 0
{0} -69 -71 61 73 0
{0} -69 -72 73 0
{0} -70 -71 73 0
{0} -70 -72 60 0
{0} -73 59 0
{0} -78 52 80 0
{0} -79 53 80 0
{0} -75 52 80 0
{0} -76 53 80 0
{0} -75 -78 53 80 0
{0} -75 -79 80 0
{0} -76 -78 80 0
{0} -76 -79 52 0
{0} -80 50 0
{0} -77 50 0
{0} -80 -77 51 0
{0} -74 50 0
{0} -80 -74 51 0
{0} -74 -77 51 0
{0} -80 -74 -77 0
{0} -21 81 0
{0} -20 81 0
{0} -20 -21 82 0
{0} -23 83 0
{0} -22 83 0
{0} -22 -23 84 0
{0} -83 78 85 0
{0} -84 79 85 0
{0} -81 78 85 0
{0} -82 79 85 0
{0} -81 -83 79 85 0
{0} -81 -84 85 0
{0} -82 -83 85 0
{0} -82 -84 78 0
{0} -85 77 0
{0} -17 86 0
{0} -16 86 0
{0} -16 -17 87 0
{0} -19 88 0
{0} -18 88 0
{0} -18 -19 89 0
{0} -88 75 90 0
{0} -89 76 90 0
{0} -86 75 90 0
{0} -87 76 90 0
{0} -86 -88 76 90 0
{0} -86 -89 90 0
{0} -87 -88 90 0
{0} -87 -89 75 0
{0} -90 74 0
{0} -97 41 99 0
{0} -98 42 99 0
{0} -93 41 99 0
{0} -94 42 99 0
{0} -93 -97 42 99 0
{0} -93 -98 99 0
{0} -94 -97 99 0
{0} -94 -98 41 0
{0} -99 37 0
{0} -95 37 0
{0} -99 -95 38 0
{0} -96 38 0
{0} -99 -96 39 0
{0} -91 37 0
{0} -99 -91 38 0
{0} -92 38 0
{0} -99 -92 39 0
{0} -91 -95 38 0
{0} -99 -91 -95 39 0
{0} -91 -96 39 0
{0} -99 -91 -96 40 0
{0} -92 -95 39 0
{0} -99 -92 -95 40 0
{0} -92 -96 40 0
{0} -99 -92 -96 0
{0} -104 97 106 0
{0} -105 98 106 0
{0} -101 97 106 0
{0} -102 98 106 0
{0} -101 -104 98 106 0
{0} -101 -105 106 0
{0} -102 -104 106 0
{0} -102 -105 97 0
{0} -106 95 0
{0} -103 95 0
{0} -106 -103 96 0
{0} -100 95 0
{0} -106 -100 96 0
{0} -100 -103 96 0
{0} -106 -100 -103 0
{0} -14 107 0
{0} -13 107 0
{0} -13 -14 108 0
{0} -15 104 109 0
{0} -107 104 109 0
{0} -108 105 109 0
{0} -107 -15 105 109 0
{0} -108 -15 109 0
{0} -109 103 0
{0} -10 110 0
{0} -9 110 0
{0} -9 -10 111 0
{0} -12 112 0
{0} -11 112 0
{0} -11 -12 113 0
{0} -112 101 114 0
{0} -113 102 114 0
{0} -110 101 114 0
{0} -111 102 114 0
{0} -110 -112 102 114 0
{0} -110 -113 114 0
{0} -111 -112 114 0
{0} -111 -113 101 0
{0} -114 100 0
{0} -119 93 121 0
{0} -120 94 121 0
{0} -116 93 121 0
{0} -117 94 121 0
{0} -116 -119 94 121 0
{0} -116 -120 121 0
{0} -117 -119 121 0
{0} -117 -120 93 0
{0} -121 91 0
{0} -118 91 0
{0} -121 -118 92 0
{0} -115 91 0
{0} -121 -115 92 0
{0} -115 -118 92 0
{0} -121 -115 -118 0
{0} -6 122 0
{0} -5 122 0
{0} -5 -6 123 0
{0} -8 124 0
{0} -7 124 0
{0} -7 -8 125 0
{0} -124 119 126 0
{0} -125 120 126 0
{0} -122 119 126 0
{0} -123 120 126 0
{0} -122 -124 120 126 0
{0} -122 -125 126 0
{0} -123 -124 126 0
{0} -123 -125 119 0
{0} -126 118 0
{0} -2 127 0
{0} -1 127 0
{0} -1 -2 128 0
{0} -4 129 0
{0} -3 129 0
{0} -3 -4 130 0
{0} -129 116 131 0
{0} -130 117 131 0
{0} -127 116 131 0
{0} -128 117 131 0
{0} -127 -129 117 131 0
{0} -127 -130 131 0
{0} -128 -129 131 0
{0} -128 -130 116 0
{0} -131 115 0
